# 3d Lennard-Jones melt
#
# This example requires that the example models provided with
# the kim-api package are installed.  see the ./lib/kim/README or
# ./lib/kim/Install.py files for details on how to install these
# example models.
#

units		metal
atom_style	atomic
newton          on

dimension 3
boundary p p p
atom_style atomic
read_data config
replicate 1 1 1

pair_style      kim ex_model_Ar_P_LJ
pair_coeff      * * Ar

fix		1 all nve

dump myDump all custom 100 lammps.forces id type x y z fx fy fz
run 		0
